instances/knapsack/discrete_knapsack_uncertainty/knapsack_70_20.lp
\ Model knapsack_70_20
\ LP format - for model browsing. Use MPS format to capture full model detail.
\ Signature: 0x9699bb600e1f4c54
Minimize
  - 5 x[0] - 46 x[1] - 87 x[2] - 75 x[3] - 21 x[4] - 24 x[5] - 73 x[6]
   - 39 x[7] - 82 x[8] - 54 x[9] - 90 x[10] - 70 x[11] - 34 x[12]
   - 49 x[13] - 98 x[14] - 43 x[15] - 49 x[16] - 29 x[17] - 6 x[18]
   - 33 x[19] - 25 x[20] - 62 x[21] - 11 x[22] - 95 x[23] - 68 x[24]
   - 2 x[25] - 55 x[26] - 75 x[27] - 85 x[28] - 72 x[29] - 68 x[30]
   - 3 x[31] - 51 x[32] - 94 x[33] - 43 x[34] - 68 x[35] - 60 x[36]
   - 14 x[37] - 50 x[38] - 87 x[39] - 91 x[40] - 61 x[41] - 41 x[42]
   - 34 x[43] - 18 x[44] - 70 x[45] - 40 x[46] - 16 x[47] - 60 x[48]
   - x[49] - 74 x[50] - 42 x[51] - 78 x[52] - 64 x[53] - 51 x[54]
   - 93 x[55] - 62 x[56] - 83 x[57] - 3 x[58] - 18 x[59] - 75 x[60]
   - 53 x[61] - 45 x[62] - 57 x[63] - 46 x[64] - 20 x[65] - 52 x[66]
   - 13 x[67] - 80 x[68] - 45 x[69]
Subject To
 primal_upper: 3 x[0] + 35 x[1] + 25 x[2] + 30 x[3] + 19 x[4] + 17 x[5]
   + 68 x[6] + 15 x[7] + 44 x[8] + 37 x[9] + 55 x[10] + 70 x[11] + 87 x[12]
   + 91 x[13] + 32 x[14] + 36 x[15] + 88 x[16] + 55 x[17] + 100 x[18]
   + 73 x[19] + 76 x[20] + 43 x[21] + 31 x[22] + 82 x[23] + 32 x[24]
   + 31 x[25] + x[26] + 87 x[27] + 5 x[28] + 58 x[29] + 97 x[30] + 75 x[31]
   + 31 x[32] + 56 x[33] + 55 x[34] + 12 x[35] + 83 x[36] + 52 x[37]
   + 31 x[38] + 50 x[39] + 22 x[40] + 25 x[41] + 97 x[42] + 53 x[43]
   + 10 x[44] + 38 x[45] + 37 x[46] + 5 x[47] + 94 x[48] + 79 x[49]
   + 62 x[50] + 27 x[51] + 44 x[52] + 27 x[53] + 96 x[54] + 31 x[55]
   + 32 x[56] + 34 x[57] + 79 x[58] + 41 x[59] + 4 x[60] + 42 x[61]
   + 7 x[62] + 10 x[63] + 3 x[64] + 95 x[65] + 92 x[66] + 70 x[67]
   + 71 x[68] + 73 x[69] + 0.3 r[0] + 3.5 r[1] + 2.5 r[2] + 3 r[3]
   + 1.9 r[4] + 1.7 r[5] + 6.8 r[6] + 1.5 r[7] + 4.4 r[8] + 3.7 r[9]
   + 5.5 r[10] + 7 r[11] + 8.7 r[12] + 9.1 r[13] + 3.2 r[14] + 3.6 r[15]
   + 8.8 r[16] + 5.5 r[17] + 10 r[18] + 7.3 r[19] + 7.6 r[20] + 4.3 r[21]
   + 3.1 r[22] + 8.2 r[23] + 3.2 r[24] + 3.1 r[25] + 0.1 r[26] + 8.7 r[27]
   + 0.5 r[28] + 5.8 r[29] + 9.7 r[30] + 7.5 r[31] + 3.1 r[32] + 5.6 r[33]
   + 5.5 r[34] + 1.2 r[35] + 8.3 r[36] + 5.2 r[37] + 3.1 r[38] + 5 r[39]
   + 2.2 r[40] + 2.5 r[41] + 9.7 r[42] + 5.3 r[43] + r[44] + 3.8 r[45]
   + 3.7 r[46] + 0.5 r[47] + 9.4 r[48] + 7.9 r[49] + 6.2 r[50] + 2.7 r[51]
   + 4.4 r[52] + 2.7 r[53] + 9.6 r[54] + 3.1 r[55] + 3.2 r[56] + 3.4 r[57]
   + 7.9 r[58] + 4.1 r[59] + 0.4 r[60] + 4.2 r[61] + 0.7 r[62] + r[63]
   + 0.3 r[64] + 9.5 r[65] + 9.2 r[66] + 7 r[67] + 7.1 r[68] + 7.3 r[69]
   <= 320
 primal_lower: 3.679703486343243 x[0] + 5.105551761733707 x[1]
   + 3.159626066677547 x[2] + 1.526625223119285 x[3]
   + 2.151768764898097 x[4] + 0.447357346742516 x[5]
   + 4.418695828393731 x[6] + 3.065575927818294 x[7]
   + 4.377495273380037 x[8] + 3.742926451308553 x[9]
   + 4.610636399790396 x[10] + 1.335792164884901 x[11]
   + 4.402056891972678 x[12] + 2.249827970204836 x[13]
   + 4.885951267287584 x[14] + 0.4568044296157197 x[15]
   + 4.447558069713115 x[16] + 1.946564007518339 x[17]
   + 3.592974061958318 x[18] + 4.473863108407913 x[19]
   + 5.254781662033321 x[20] + 0.1988735262391862 x[21]
   + 2.939495409454794 x[22] + 4.604413024014425 x[23]
   + 0.7176693645021002 x[24] + 1.552223832100489 x[25]
   + 1.997731422481781 x[26] + 4.144086318183109 x[27]
   + 2.220647577497322 x[28] + 2.613245848842864 x[29]
   + 5.01648350425082 x[30] + 1.869987876587958 x[31]
   + 3.623434811839172 x[32] + 3.337379240738241 x[33]
   + 2.008413647255658 x[34] + 0.0996925381955395 x[35]
   + 2.002248461580731 x[36] + 3.256907362340517 x[37]
   + 1.671751444142931 x[38] + 4.669341665044209 x[39]
   + 4.114569564591411 x[40] + 4.212071387280615 x[41]
   + 1.291404253193848 x[42] + 5.285545818697853 x[43]
   + 4.16204147181072 x[44] + 2.852693126834772 x[45]
   + 4.189593892037689 x[46] + 5.487186223852358 x[47]
   + 1.440879067711716 x[48] + 5.089680632274575 x[49]
   + 2.816673714706655 x[50] + 1.405816455176377 x[51]
   + 4.679054596248068 x[52] + 1.793836143435438 x[53]
   + 2.85427883953728 x[54] + 4.366106737842876 x[55]
   + 3.378321427975584 x[56] + 4.889247016870171 x[57]
   + 1.774108823196324 x[58] + 0.3066461283523518 x[59]
   + 2.687252217170845 x[60] + 4.378148641479464 x[61]
   + 1.270867261837815 x[62] + 5.205772944405493 x[63]
   + 5.058927585022087 x[64] + 3.176230269361576 x[65]
   + 3.113390730671817 x[66] + 4.135865505924463 x[67]
   + 5.080803975386848 x[68] + 3.097602586905392 x[69] + 91 u[0] + 8 u[1]
   + 34 u[2] + 87 u[3] + 40 u[4] + 25 u[5] + 73 u[6] + 75 u[7] + 41 u[8]
   + 54 u[9] + 91 u[10] + 59 u[11] + 96 u[12] + 12 u[13] + 52 u[14]
   + 60 u[15] + 21 u[16] + 48 u[17] + 61 u[18] + 98 u[19] + 29 u[20]
   + 95 u[21] + 44 u[22] + 78 u[23] + 40 u[24] + 52 u[25] + 70 u[26]
   + 75 u[27] + 53 u[28] + 27 u[29] + 85 u[30] + 47 u[31] + 47 u[32]
   + 97 u[33] + 80 u[34] + 17 u[35] + 48 u[36] + 40 u[37] + 100 u[38]
   + 86 u[39] + 11 u[40] + 65 u[41] + 82 u[42] + 97 u[43] + 19 u[44]
   + 6 u[45] + 25 u[46] + 69 u[47] + 75 u[48] + 60 u[49] + 30 u[50]
   + 12 u[51] + 73 u[52] + 100 u[53] + 60 u[54] + 59 u[55] + 85 u[56]
   + 50 u[57] + 84 u[58] + 22 u[59] + 80 u[60] + 46 u[61] + 55 u[62]
   + 98 u[63] + 99 u[64] + 36 u[65] + 100 u[66] + 54 u[67] + 84 u[68]
   + 49 u[69] <= 72661
 mccormick1[0]: - u[0] + r[0] <= 0
 mccormick1[1]: - u[1] + r[1] <= 0
 mccormick1[2]: - u[2] + r[2] <= 0
 mccormick1[3]: - u[3] + r[3] <= 0
 mccormick1[4]: - u[4] + r[4] <= 0
 mccormick1[5]: - u[5] + r[5] <= 0
 mccormick1[6]: - u[6] + r[6] <= 0
 mccormick1[7]: - u[7] + r[7] <= 0
 mccormick1[8]: - u[8] + r[8] <= 0
 mccormick1[9]: - u[9] + r[9] <= 0
 mccormick1[10]: - u[10] + r[10] <= 0
 mccormick1[11]: - u[11] + r[11] <= 0
 mccormick1[12]: - u[12] + r[12] <= 0
 mccormick1[13]: - u[13] + r[13] <= 0
 mccormick1[14]: - u[14] + r[14] <= 0
 mccormick1[15]: - u[15] + r[15] <= 0
 mccormick1[16]: - u[16] + r[16] <= 0
 mccormick1[17]: - u[17] + r[17] <= 0
 mccormick1[18]: - u[18] + r[18] <= 0
 mccormick1[19]: - u[19] + r[19] <= 0
 mccormick1[20]: - u[20] + r[20] <= 0
 mccormick1[21]: - u[21] + r[21] <= 0
 mccormick1[22]: - u[22] + r[22] <= 0
 mccormick1[23]: - u[23] + r[23] <= 0
 mccormick1[24]: - u[24] + r[24] <= 0
 mccormick1[25]: - u[25] + r[25] <= 0
 mccormick1[26]: - u[26] + r[26] <= 0
 mccormick1[27]: - u[27] + r[27] <= 0
 mccormick1[28]: - u[28] + r[28] <= 0
 mccormick1[29]: - u[29] + r[29] <= 0
 mccormick1[30]: - u[30] + r[30] <= 0
 mccormick1[31]: - u[31] + r[31] <= 0
 mccormick1[32]: - u[32] + r[32] <= 0
 mccormick1[33]: - u[33] + r[33] <= 0
 mccormick1[34]: - u[34] + r[34] <= 0
 mccormick1[35]: - u[35] + r[35] <= 0
 mccormick1[36]: - u[36] + r[36] <= 0
 mccormick1[37]: - u[37] + r[37] <= 0
 mccormick1[38]: - u[38] + r[38] <= 0
 mccormick1[39]: - u[39] + r[39] <= 0
 mccormick1[40]: - u[40] + r[40] <= 0
 mccormick1[41]: - u[41] + r[41] <= 0
 mccormick1[42]: - u[42] + r[42] <= 0
 mccormick1[43]: - u[43] + r[43] <= 0
 mccormick1[44]: - u[44] + r[44] <= 0
 mccormick1[45]: - u[45] + r[45] <= 0
 mccormick1[46]: - u[46] + r[46] <= 0
 mccormick1[47]: - u[47] + r[47] <= 0
 mccormick1[48]: - u[48] + r[48] <= 0
 mccormick1[49]: - u[49] + r[49] <= 0
 mccormick1[50]: - u[50] + r[50] <= 0
 mccormick1[51]: - u[51] + r[51] <= 0
 mccormick1[52]: - u[52] + r[52] <= 0
 mccormick1[53]: - u[53] + r[53] <= 0
 mccormick1[54]: - u[54] + r[54] <= 0
 mccormick1[55]: - u[55] + r[55] <= 0
 mccormick1[56]: - u[56] + r[56] <= 0
 mccormick1[57]: - u[57] + r[57] <= 0
 mccormick1[58]: - u[58] + r[58] <= 0
 mccormick1[59]: - u[59] + r[59] <= 0
 mccormick1[60]: - u[60] + r[60] <= 0
 mccormick1[61]: - u[61] + r[61] <= 0
 mccormick1[62]: - u[62] + r[62] <= 0
 mccormick1[63]: - u[63] + r[63] <= 0
 mccormick1[64]: - u[64] + r[64] <= 0
 mccormick1[65]: - u[65] + r[65] <= 0
 mccormick1[66]: - u[66] + r[66] <= 0
 mccormick1[67]: - u[67] + r[67] <= 0
 mccormick1[68]: - u[68] + r[68] <= 0
 mccormick1[69]: - u[69] + r[69] <= 0
 mccormick2[0]: - x[0] + r[0] <= 0
 mccormick2[1]: - x[1] + r[1] <= 0
 mccormick2[2]: - x[2] + r[2] <= 0
 mccormick2[3]: - x[3] + r[3] <= 0
 mccormick2[4]: - x[4] + r[4] <= 0
 mccormick2[5]: - x[5] + r[5] <= 0
 mccormick2[6]: - x[6] + r[6] <= 0
 mccormick2[7]: - x[7] + r[7] <= 0
 mccormick2[8]: - x[8] + r[8] <= 0
 mccormick2[9]: - x[9] + r[9] <= 0
 mccormick2[10]: - x[10] + r[10] <= 0
 mccormick2[11]: - x[11] + r[11] <= 0
 mccormick2[12]: - x[12] + r[12] <= 0
 mccormick2[13]: - x[13] + r[13] <= 0
 mccormick2[14]: - x[14] + r[14] <= 0
 mccormick2[15]: - x[15] + r[15] <= 0
 mccormick2[16]: - x[16] + r[16] <= 0
 mccormick2[17]: - x[17] + r[17] <= 0
 mccormick2[18]: - x[18] + r[18] <= 0
 mccormick2[19]: - x[19] + r[19] <= 0
 mccormick2[20]: - x[20] + r[20] <= 0
 mccormick2[21]: - x[21] + r[21] <= 0
 mccormick2[22]: - x[22] + r[22] <= 0
 mccormick2[23]: - x[23] + r[23] <= 0
 mccormick2[24]: - x[24] + r[24] <= 0
 mccormick2[25]: - x[25] + r[25] <= 0
 mccormick2[26]: - x[26] + r[26] <= 0
 mccormick2[27]: - x[27] + r[27] <= 0
 mccormick2[28]: - x[28] + r[28] <= 0
 mccormick2[29]: - x[29] + r[29] <= 0
 mccormick2[30]: - x[30] + r[30] <= 0
 mccormick2[31]: - x[31] + r[31] <= 0
 mccormick2[32]: - x[32] + r[32] <= 0
 mccormick2[33]: - x[33] + r[33] <= 0
 mccormick2[34]: - x[34] + r[34] <= 0
 mccormick2[35]: - x[35] + r[35] <= 0
 mccormick2[36]: - x[36] + r[36] <= 0
 mccormick2[37]: - x[37] + r[37] <= 0
 mccormick2[38]: - x[38] + r[38] <= 0
 mccormick2[39]: - x[39] + r[39] <= 0
 mccormick2[40]: - x[40] + r[40] <= 0
 mccormick2[41]: - x[41] + r[41] <= 0
 mccormick2[42]: - x[42] + r[42] <= 0
 mccormick2[43]: - x[43] + r[43] <= 0
 mccormick2[44]: - x[44] + r[44] <= 0
 mccormick2[45]: - x[45] + r[45] <= 0
 mccormick2[46]: - x[46] + r[46] <= 0
 mccormick2[47]: - x[47] + r[47] <= 0
 mccormick2[48]: - x[48] + r[48] <= 0
 mccormick2[49]: - x[49] + r[49] <= 0
 mccormick2[50]: - x[50] + r[50] <= 0
 mccormick2[51]: - x[51] + r[51] <= 0
 mccormick2[52]: - x[52] + r[52] <= 0
 mccormick2[53]: - x[53] + r[53] <= 0
 mccormick2[54]: - x[54] + r[54] <= 0
 mccormick2[55]: - x[55] + r[55] <= 0
 mccormick2[56]: - x[56] + r[56] <= 0
 mccormick2[57]: - x[57] + r[57] <= 0
 mccormick2[58]: - x[58] + r[58] <= 0
 mccormick2[59]: - x[59] + r[59] <= 0
 mccormick2[60]: - x[60] + r[60] <= 0
 mccormick2[61]: - x[61] + r[61] <= 0
 mccormick2[62]: - x[62] + r[62] <= 0
 mccormick2[63]: - x[63] + r[63] <= 0
 mccormick2[64]: - x[64] + r[64] <= 0
 mccormick2[65]: - x[65] + r[65] <= 0
 mccormick2[66]: - x[66] + r[66] <= 0
 mccormick2[67]: - x[67] + r[67] <= 0
 mccormick2[68]: - x[68] + r[68] <= 0
 mccormick2[69]: - x[69] + r[69] <= 0
 mccormick3[0]: x[0] + u[0] - r[0] <= 1
 mccormick3[1]: x[1] + u[1] - r[1] <= 1
 mccormick3[2]: x[2] + u[2] - r[2] <= 1
 mccormick3[3]: x[3] + u[3] - r[3] <= 1
 mccormick3[4]: x[4] + u[4] - r[4] <= 1
 mccormick3[5]: x[5] + u[5] - r[5] <= 1
 mccormick3[6]: x[6] + u[6] - r[6] <= 1
 mccormick3[7]: x[7] + u[7] - r[7] <= 1
 mccormick3[8]: x[8] + u[8] - r[8] <= 1
 mccormick3[9]: x[9] + u[9] - r[9] <= 1
 mccormick3[10]: x[10] + u[10] - r[10] <= 1
 mccormick3[11]: x[11] + u[11] - r[11] <= 1
 mccormick3[12]: x[12] + u[12] - r[12] <= 1
 mccormick3[13]: x[13] + u[13] - r[13] <= 1
 mccormick3[14]: x[14] + u[14] - r[14] <= 1
 mccormick3[15]: x[15] + u[15] - r[15] <= 1
 mccormick3[16]: x[16] + u[16] - r[16] <= 1
 mccormick3[17]: x[17] + u[17] - r[17] <= 1
 mccormick3[18]: x[18] + u[18] - r[18] <= 1
 mccormick3[19]: x[19] + u[19] - r[19] <= 1
 mccormick3[20]: x[20] + u[20] - r[20] <= 1
 mccormick3[21]: x[21] + u[21] - r[21] <= 1
 mccormick3[22]: x[22] + u[22] - r[22] <= 1
 mccormick3[23]: x[23] + u[23] - r[23] <= 1
 mccormick3[24]: x[24] + u[24] - r[24] <= 1
 mccormick3[25]: x[25] + u[25] - r[25] <= 1
 mccormick3[26]: x[26] + u[26] - r[26] <= 1
 mccormick3[27]: x[27] + u[27] - r[27] <= 1
 mccormick3[28]: x[28] + u[28] - r[28] <= 1
 mccormick3[29]: x[29] + u[29] - r[29] <= 1
 mccormick3[30]: x[30] + u[30] - r[30] <= 1
 mccormick3[31]: x[31] + u[31] - r[31] <= 1
 mccormick3[32]: x[32] + u[32] - r[32] <= 1
 mccormick3[33]: x[33] + u[33] - r[33] <= 1
 mccormick3[34]: x[34] + u[34] - r[34] <= 1
 mccormick3[35]: x[35] + u[35] - r[35] <= 1
 mccormick3[36]: x[36] + u[36] - r[36] <= 1
 mccormick3[37]: x[37] + u[37] - r[37] <= 1
 mccormick3[38]: x[38] + u[38] - r[38] <= 1
 mccormick3[39]: x[39] + u[39] - r[39] <= 1
 mccormick3[40]: x[40] + u[40] - r[40] <= 1
 mccormick3[41]: x[41] + u[41] - r[41] <= 1
 mccormick3[42]: x[42] + u[42] - r[42] <= 1
 mccormick3[43]: x[43] + u[43] - r[43] <= 1
 mccormick3[44]: x[44] + u[44] - r[44] <= 1
 mccormick3[45]: x[45] + u[45] - r[45] <= 1
 mccormick3[46]: x[46] + u[46] - r[46] <= 1
 mccormick3[47]: x[47] + u[47] - r[47] <= 1
 mccormick3[48]: x[48] + u[48] - r[48] <= 1
 mccormick3[49]: x[49] + u[49] - r[49] <= 1
 mccormick3[50]: x[50] + u[50] - r[50] <= 1
 mccormick3[51]: x[51] + u[51] - r[51] <= 1
 mccormick3[52]: x[52] + u[52] - r[52] <= 1
 mccormick3[53]: x[53] + u[53] - r[53] <= 1
 mccormick3[54]: x[54] + u[54] - r[54] <= 1
 mccormick3[55]: x[55] + u[55] - r[55] <= 1
 mccormick3[56]: x[56] + u[56] - r[56] <= 1
 mccormick3[57]: x[57] + u[57] - r[57] <= 1
 mccormick3[58]: x[58] + u[58] - r[58] <= 1
 mccormick3[59]: x[59] + u[59] - r[59] <= 1
 mccormick3[60]: x[60] + u[60] - r[60] <= 1
 mccormick3[61]: x[61] + u[61] - r[61] <= 1
 mccormick3[62]: x[62] + u[62] - r[62] <= 1
 mccormick3[63]: x[63] + u[63] - r[63] <= 1
 mccormick3[64]: x[64] + u[64] - r[64] <= 1
 mccormick3[65]: x[65] + u[65] - r[65] <= 1
 mccormick3[66]: x[66] + u[66] - r[66] <= 1
 mccormick3[67]: x[67] + u[67] - r[67] <= 1
 mccormick3[68]: x[68] + u[68] - r[68] <= 1
 mccormick3[69]: x[69] + u[69] - r[69] <= 1
Bounds
Binaries
 x[0] x[1] x[2] x[3] x[4] x[5] x[6] x[7] x[8] x[9] x[10] x[11] x[12] x[13]
 x[14] x[15] x[16] x[17] x[18] x[19] x[20] x[21] x[22] x[23] x[24] x[25]
 x[26] x[27] x[28] x[29] x[30] x[31] x[32] x[33] x[34] x[35] x[36] x[37]
 x[38] x[39] x[40] x[41] x[42] x[43] x[44] x[45] x[46] x[47] x[48] x[49]
 x[50] x[51] x[52] x[53] x[54] x[55] x[56] x[57] x[58] x[59] x[60] x[61]
 x[62] x[63] x[64] x[65] x[66] x[67] x[68] x[69] u[0] u[1] u[2] u[3] u[4]
 u[5] u[6] u[7] u[8] u[9] u[10] u[11] u[12] u[13] u[14] u[15] u[16] u[17]
 u[18] u[19] u[20] u[21] u[22] u[23] u[24] u[25] u[26] u[27] u[28] u[29]
 u[30] u[31] u[32] u[33] u[34] u[35] u[36] u[37] u[38] u[39] u[40] u[41]
 u[42] u[43] u[44] u[45] u[46] u[47] u[48] u[49] u[50] u[51] u[52] u[53]
 u[54] u[55] u[56] u[57] u[58] u[59] u[60] u[61] u[62] u[63] u[64] u[65]
 u[66] u[67] u[68] u[69] r[0] r[1] r[2] r[3] r[4] r[5] r[6] r[7] r[8] r[9]
 r[10] r[11] r[12] r[13] r[14] r[15] r[16] r[17] r[18] r[19] r[20] r[21]
 r[22] r[23] r[24] r[25] r[26] r[27] r[28] r[29] r[30] r[31] r[32] r[33]
 r[34] r[35] r[36] r[37] r[38] r[39] r[40] r[41] r[42] r[43] r[44] r[45]
 r[46] r[47] r[48] r[49] r[50] r[51] r[52] r[53] r[54] r[55] r[56] r[57]
 r[58] r[59] r[60] r[61] r[62] r[63] r[64] r[65] r[66] r[67] r[68] r[69]
End
