instances/knapsack/discrete_knapsack_uncertainty/knapsack_70_20.kp
15040
70
320

3 0.3 5
35 3.5 46
25 2.5 87
30 3.0 75
19 1.9 21
17 1.7 24
68 6.8 73
15 1.5 39
44 4.4 82
37 3.7 54
55 5.5 90
70 7.0 70
87 8.7 34
91 9.1 49
32 3.2 98
36 3.6 43
88 8.8 49
55 5.5 29
100 10.0 6
73 7.3 33
76 7.6 25
43 4.3 62
31 3.1 11
82 8.2 95
32 3.2 68
31 3.1 2
1 0.1 55
87 8.7 75
5 0.5 85
58 5.8 72
97 9.7 68
75 7.5 3
31 3.1 51
56 5.6 94
55 5.5 43
12 1.2 68
83 8.3 60
52 5.2 14
31 3.1 50
50 5.0 87
22 2.2 91
25 2.5 61
97 9.7 41
53 5.3 34
10 1.0 18
38 3.8 70
37 3.7 40
5 0.5 16
94 9.4 60
79 7.9 1
62 6.2 74
27 2.7 42
44 4.4 78
27 2.7 64
96 9.6 51
31 3.1 93
32 3.2 62
34 3.4 83
79 7.9 3
41 4.1 18
4 0.4 75
42 4.2 53
7 0.7 45
10 1.0 57
3 0.3 46
95 9.5 20
92 9.2 52
70 7.0 13
71 7.1 80
73 7.3 45

72661
392

[3.679703486343243 5.105551761733707 3.1596260666775473 1.526625223119285 2.151768764898097 0.447357346742516 4.418695828393731 3.065575927818294 4.3774952733800365 3.7429264513085525 4.610636399790396 1.335792164884901 4.402056891972678 2.2498279702048363 4.8859512672875836 0.45680442961571965 4.447558069713115 1.9465640075183392 3.5929740619583184 4.473863108407913 5.254781662033321 0.1988735262391862 2.9394954094547936 4.604413024014425 0.7176693645021002 1.5522238321004893 1.9977314224817813 4.144086318183109 2.220647577497322 2.6132458488428645 5.01648350425082 1.869987876587958 3.623434811839172 3.337379240738241 2.008413647255658 0.09969253819553953 2.0022484615807308 3.2569073623405167 1.6717514441429306 4.669341665044209 4.114569564591411 4.2120713872806155 1.291404253193848 5.285545818697853 4.16204147181072 2.8526931268347724 4.1895938920376885 5.487186223852358 1.4408790677117163 5.089680632274575 2.8166737147066554 1.4058164551763768 4.679054596248068 1.7938361434354382 2.8542788395372796 4.366106737842876 3.378321427975584 4.889247016870171 1.774108823196324 0.3066461283523518 2.6872522171708453 4.378148641479464 1.2708672618378152 5.205772944405493 5.058927585022087 3.1762302693615756 3.113390730671817 4.135865505924463 5.080803975386848 3.0976025869053925]

[91 8 34 87 40 25 73 75 41 54 91 59 96 12 52 60 21 48 61 98 29 95 44 78 40 52 70 75 53 27 85 47 47 97 80 17 48 40 100 86 11 65 82 97 19 6 25 69 75 60 30 12 73 100 60 59 85 50 84 22 80 46 55 98 99 36 100 54 84 49]
